
Gurobi 8.1.1 (win64) logging started 11/26/19 21:02:34

Changed value of parameter LogFile to logs/miss/qp/miss-07-30-2.log
   Prev: gurobi.log  Default: 
Changed value of parameter LogToConsole to 0
   Prev: 1  Min: 0  Max: 1  Default: 1
Changed value of parameter TimeLimit to 3600.0
   Prev: 1e+100  Min: 0.0  Max: 1e+100  Default: 1e+100
Optimize a model with 1 rows, 504 columns and 1 nonzeros
Model has 14 quadratic constraints
Variable types: 0 continuous, 504 integer (504 binary)
Coefficient statistics:
  Matrix range     [1e+00, 1e+00]
  QMatrix range    [1e+00, 1e+00]
  Objective range  [1e+00, 1e+00]
  Bounds range     [1e+00, 1e+00]
  RHS range        [1e+00, 1e+00]
  QRHS range       [1e+00, 1e+00]
Found heuristic solution: objective 504.0000000
Presolve removed 1 rows and 1 columns
Presolve time: 0.24s
Presolved: 0 rows, 503 columns, 0 nonzeros
Variable types: 0 continuous, 503 integer (503 binary)

Root relaxation: objective 1.000000e+00, 0 iterations, 0.00 seconds

    Nodes    |    Current Node    |     Objective Bounds      |     Work
 Expl Unexpl |  Obj  Depth IntInf | Incumbent    BestBd   Gap | It/Node Time

     0     0    2.00000    0    2  504.00000    2.00000   100%     -    0s
H    0     0                      14.0000000    2.00000  85.7%     -    0s
H    0     0                      13.0000000    2.00000  84.6%     -    0s
     0     0    2.00000    0    2   13.00000    2.00000  84.6%     -    0s
     0     2    2.00000    0    2   13.00000    2.00000  84.6%     -    0s
H   29    16                      11.0000000    2.00000  81.8%   1.1    0s
H  229   105                      10.0000000    2.00000  80.0%   1.1    4s
   230   105    2.00000   53    2   10.00000    2.00000  80.0%   1.1    5s
   391   176    2.00000   93    2   10.00000    2.00000  80.0%   1.0   10s
H  506   243                       9.0000000    2.00000  77.8%   1.0   14s
   507   240    2.00000  121    2    9.00000    2.00000  77.8%   1.0   16s
   596   275    2.00000  143    2    9.00000    2.00000  77.8%   1.0   20s
   696   333    2.00000  169    -    9.00000    2.00000  77.8%   1.0   26s
   784   369    2.00000  189    -    9.00000    2.00000  77.8%   1.0   31s
   850   399    2.00000  205    -    9.00000    2.00000  77.8%   1.0   36s
   928   444    2.00000  225    -    9.00000    2.00000  77.8%   1.0   42s
   959   459    2.00000  232    -    9.00000    2.00000  77.8%   1.0   46s
  1050   498    2.00000  255    2    9.00000    2.00000  77.8%   1.0   52s
  1071   521    2.00000  264    2    9.00000    2.00000  77.8%   1.0   55s
  1148   554    3.00000  280    -    9.00000    2.00000  77.8%   1.0   60s
  1223   582    2.00000  299    2    9.00000    2.00000  77.8%   1.0   67s
  1268   606    2.00000  309    2    9.00000    2.00000  77.8%   1.0   71s
  1331   651    3.00000  329    -    9.00000    2.00000  77.8%   1.0   75s
  1394   666    2.00000  342    2    9.00000    2.00000  77.8%   1.0   84s
  1447   695    2.00000  354    -    9.00000    2.00000  77.8%   1.0   89s
  1501   682    3.50000  371    1    9.00000    2.00000  77.8%   1.0   93s
  1555   673    4.00000  374    -    9.00000    2.00000  77.8%   1.0   99s
  1614   698    6.00000  380    -    9.00000    2.00000  77.8%   1.0  104s
  1642   752    6.00000  380    -    9.00000    2.00000  77.8%   1.1  108s
  1681   767    7.50000  398    1    9.00000    2.00000  77.8%   1.1  113s
  1737   763    8.00000  413    -    9.00000    2.00000  77.8%   1.1  120s
  1791   736    8.00000  413    -    9.00000    2.00000  77.8%   1.1  128s
  1839   746    8.00000  413    -    9.00000    2.00000  77.8%   1.1  137s
  1886   746    8.00000  413    -    9.00000    2.00000  77.8%   1.1  147s
  1942   747    8.00000  413    -    9.00000    2.00000  77.8%   1.1  158s
  2007   751    8.00000  413    -    9.00000    2.00000  77.8%   1.1  172s
  2099   791    8.00000  413    -    9.00000    3.00000  66.7%   1.1  191s
  2222   791    8.00000  413    -    9.00000    3.00000  66.7%   1.1  209s
  2302   883    5.00000  332    -    9.00000    3.00000  66.7%   1.1  210s
  2353   841    8.00000  413    -    9.00000    3.00000  66.7%   1.1  224s
  2421   932    4.00000  333    -    9.00000    3.00000  66.7%   1.1  225s
  2435   874    8.00000  413    -    9.00000    3.00000  66.7%   1.1  240s
  2534   883    8.00000  413    -    9.00000    3.00000  66.7%   1.1  258s
  2630   910    8.00000  413    -    9.00000    3.00000  66.7%   1.2  276s
  2731   948    4.00000  126    2    9.00000    3.00000  66.7%   1.2  297s
  2856   962    4.00000  321    2    9.00000    3.00000  66.7%   1.2  321s
  2984  1005    4.00000  117    2    9.00000    3.00000  66.7%   1.2  351s
  3105  1052    4.00000  328    2    9.00000    3.00000  66.7%   1.2  380s
  3246  1084    3.00000  338    2    9.00000    3.00000  66.7%   1.2  410s
  3355  1131    3.00000  339    2    9.00000    3.00000  66.7%   1.2  443s
  3529  1201    4.00000  341    2    9.00000    3.00000  66.7%   1.2  480s
  3671  1245    4.00000  112    2    9.00000    3.00000  66.7%   1.2  510s
  3821  1318    4.00000  300    2    9.00000    3.00000  66.7%   1.2  544s
  3944  1359    4.00000  324    2    9.00000    3.00000  66.7%   1.2  568s
  4034  1397    4.00000  359    2    9.00000    3.00000  66.7%   1.2  602s
  4299  1542    4.00000  366    2    9.00000    3.00000  66.7%   1.2  638s
  4447  1606    4.00000  374    -    9.00000    3.00000  66.7%   1.2  679s
  4629  1739    4.00000  326    -    9.00000    3.00000  66.7%   1.2  680s
  4635  1731    4.00000  106    2    9.00000    3.00000  66.7%   1.2  718s
  4837  1952    6.00000  338    2    9.00000    3.00000  66.7%   1.2  936s
  4839  1953    4.00000   37 6639    9.00000    3.00000  66.7%   1.2 1192s
  4841  1956    4.00000   64    2    9.00000    3.00000  66.7%  13.7 1625s
  4843  1957    3.00000  178 6602    9.00000    3.00000  66.7%  13.7 1893s
  4844  1958    4.00000  241 5502    9.00000    3.00000  66.7%  13.7 2414s
  4845  1959    4.00000   40 3298    9.00000    3.00000  66.7%  13.7 2592s

Cutting planes:
  Gomory: 1
  Zero half: 13

Explored 4845 nodes (313251 simplex iterations) in 3607.01 seconds
Thread count was 4 (of 4 available processors)

Solution count 6: 9 10 11 ... 504

Time limit reached
Best objective 9.000000000000e+00, best bound 3.000000000000e+00, gap 66.6667%
Warning: Q constraint 0 doesn't have a name
